db/inputs/97342244320169879937087572259648260.smt2
(set-logic QF_FP)
(declare-const x0 (_ FloatingPoint 8 24))
(declare-const x1 (_ FloatingPoint 8 24))
(declare-const x2 (_ FloatingPoint 8 24))
(declare-const x3 (_ FloatingPoint 8 24))
(declare-const x4 (_ FloatingPoint 8 24))
(declare-const x5 (_ FloatingPoint 8 24))
(declare-const x6 (_ FloatingPoint 8 24))
(declare-const x7 (_ FloatingPoint 8 24))
(declare-const x8 (_ FloatingPoint 8 24))
(assert (fp.gt (fp.div RNE (fp.div RNE (fp.mul RNE x6 x4) (fp.mul RNE x2 x3)) (fp.add RNE (fp.neg x0) (fp.add RNE x8 x5))) (fp.neg (fp.mul RNE (fp.neg x8) (fp.add RNE x5 x0)))))
(check-sat)
