db/data/97342244320169879937087572259648260.z3.out
sat
-------------------
12.730919907
